c This is QMaxSAT 2017 based on 14.07
c This is Glucose 3.0
c This is MiniSat 2.2.0
c WARNING: for repeatability, setting FPU to use double precision
c card = mrwto, comp = 0, pmodel = 0, narr = 2, mct = 24, verb = 0
cr firstCPXsol 0 0 0
c top = 81479
c |  Number of variables:    12790                                            |
c |  Number of clauses:      2869300                                          |
c |  Weight of hard clauses: 81479                                            |
c |  Number of soft clauses: 1104                                             |
c |  Number of unit soft clauses: 1104                                        |
c |  Maximum Cardinality (by unit): 162956       (162956      )               |
c last restart ## conflicts  :  136 6442 
o 2053 | cpuTime 0.233364 s
c Sum of weights = 81478
c A number of soft clauses remained = 552
c MRWTO encoding for Pseudo-Boolean Constraints
c sizeMax=2053
c No.0 Divisor=13	generated by pow1
c No.1 Divisor=13	generated by pow1
c No.2 Divisor=13	generated by pow1
c p0= 13	p1= 13	p2= 13	
c number of digits = 4
c linkingVar[0].size = 13, linkingVar[1].size = 13, linkingVar[2].size = 13, linkingVar[3].size = 1, 
c Pseudo-Boolean Constraints: 12764 variables and 134398 clauses
c Sum of weights = 81478
c A number of soft clauses remained = 552
c MRWTO encoding for Pseudo-Boolean Constraints
c sizeMax=2053
c No.0 Divisor=13	generated by pow1
c No.1 Divisor=13	generated by pow1
c No.2 Divisor=13	generated by pow1
c p0= 13	p1= 13	p2= 13	
c number of digits = 4
c linkingVar[0].size = 13, linkingVar[1].size = 13, linkingVar[2].size = 13, linkingVar[3].size = 1, 
c Pseudo-Boolean Constraints: 12764 variables and 134398 clauses
c last restart ## conflicts  :  321 4883 
o 1889 | cpuTime 3.16393 s
c last restart ## conflicts  :  215 6646 
o 1838 | cpuTime 3.20077 s
c last restart ## conflicts  :  323 4264 
o 1643 | cpuTime 4.65864 s
c last restart ## conflicts  :  507 3883 
o 1443 | cpuTime 5.63262 s
c last restart ## conflicts  :  590 4038 
o 1393 | cpuTime 10.3576 s
c last restart ## conflicts  :  590 4627 
o 1209 | cpuTime 10.9224 s
c last restart ## conflicts  :  1009 4835 
o 1018 | cpuTime 18.2202 s
c last restart ## conflicts  :  486 3945 
o 1008 | cpuTime 45.3604 s
c last restart ## conflicts  :  706 5834 
o 993 | cpuTime 173.357 s
c last restart ## conflicts  :  169 4179 
o 964 | cpuTime 243.821 s
c last restart ## conflicts  :  7492 5882 
o 960 | cpuTime 367.216 s
c last restart ## conflicts  :  1047 4149 
o 943 | cpuTime 702.334 s
c last restart ## conflicts  :  41508 3612 
o 934 | cpuTime 763.735 s
c last restart ## conflicts  :  664 3685 
o 917 | cpuTime 764.264 s
c last restart ## conflicts  :  639 3453 
o 885 | cpuTime 948.653 s
c last restart ## conflicts  :  843 4132 
o 831 | cpuTime 1148.17 s
s UNKNOWN
c Search is stopped by a limit (maybe time-limit)
cr positiVarArr: [ | 4@1(1->4) | 84@1(4->12) | 120@1(5->24) | 145@1(7->1) | 205@1(9->13) | 221@1(10->5) | 287@1(12->23) | 302@1(13->14) | 332@1(14->20) | 466@1(20->10) | 537@1(23->9) | 559@1(24->7) | 582@2(1->6) | 615@2(2->15) | 635@2(3->11) | 704@2(6->8) | 765@2(8->21) | 832@2(11->16) | 930@2(15->18) | 937@2(16->1) | 982@2(17->22) | 987@2(18->3) | 1010@2(19->2) | 1073@2(21->17) | 1099@2(22->19) | ]
cr the 1-th chain: [ 1->4->12->23->9->13->14->20->10->5->24->7->1 ] (#non-depot=11) {#cumul.=12}
cr the 2-th chain: [ 1->6->8->21->17->22->19->2->15->18->3->11->16->1 ] (#non-depot=12) {#cumul.=24}
c Latest Answer = 0 by 17 loops
c restarts              : 60612
c conflicts             : 14496499       (4035 /sec)
c decisions             : 46531372       (0.00 % random) (12951 /sec)
c propagations          : 9551396325     (2658381 /sec)
c conflict literals     : 2656969916     (27.52 % deleted)
c Memory used           : 644.00 MB
c CPU time              : 3592.94 s
